============================[ Problem Statistics ]=============================|                                                                             ||  Number of variables:          4242                                         ||  Number of clauses:            9862                                         ||  Parse time:                   0.26 s                                       ||                                                                             |============================[ Search Statistics ]==============================| Conflicts |          ORIGINAL         |          LEARNT          | Progress ||           |    Vars  Clauses Literals |    Limit  Clauses Lit/Cl |          |===============================================================================|       100 |    1591     6067   399998 |     2224      100     53 | 62.501 % |===============================================================================restarts              : 2conflicts             : 154            (376 /sec)decisions             : 326            (0.00 % random) (795 /sec)propagations          : 9967           (24310 /sec)conflict literals     : 10051          (95.38 % deleted)CPU time              : 0.41 sSATISFIABLE